c ren 1 -> 1
c ren 2 -> 2
c ren 3 -> 3
c ren 4 -> 4
c ren 5 -> 5
c ren 6 -> 6
c ren 7 -> 7
c ren 8 -> 8
c ren 9 -> 9
c ren 10 -> 10
c ren 11 -> 11
c ren 12 -> 12
c ren 13 -> 13
c ren 14 -> 14
c ren 15 -> 15
c ren 16 -> 16
c ren 17 -> 17
c ren 18 -> 18
c ren 19 -> 19
c ren 20 -> 20
c ren 21 -> 21
c ren 22 -> 22
c ren 23 -> 23
c ren 24 -> 24
c ren 25 -> 25
c ren 26 -> 26
c ren 27 -> 27
c ren 28 -> 28
c ren 29 -> 29
c ren 30 -> 30
c ren 31 -> 31
c ren 32 -> 32
c ren 33 -> 33
c ren 34 -> 34
c ren 35 -> 35
c ren 36 -> 36
c ren 37 -> 37
c ren 38 -> 38
c ren 39 -> 39
c ren 40 -> 40
c ren 41 -> 41
c ren 42 -> 42
c ren 43 -> 43
c ren 44 -> 44
c ren 45 -> 45
c ren 46 -> 46
c ren 47 -> 47
c ren 48 -> 48
c ren 49 -> 49
c ren 50 -> 50
c ren 51 -> 51
c ren 52 -> 52
c ren 53 -> 53
c ren 54 -> 54
c ren 67 -> 55
c ren 82 -> 56
c ren 85 -> 57
c ren 88 -> 58
c ren 91 -> 59
c ren 97 -> 60
c ren 106 -> 61
c ren 121 -> 62
c ren 131 -> 63
c ren 142 -> 64
c ren 148 -> 65
c ren 159 -> 66
c ren 165 -> 67
c ren 170 -> 68
c ren 175 -> 69
c ren 179 -> 70
c ren 184 -> 71
c ren 188 -> 72
c ren 190 -> 73
c ren 191 -> 74
c ren 192 -> 75
c ren 193 -> 76
c ren 194 -> 77
c ren 195 -> 78
c ren 196 -> 79
c ren 197 -> 80
c ren 198 -> 81
c ren 246 -> 82
c ren 274 -> 83
c ren 285 -> 84
c ren 292 -> 85
c ren 312 -> 86
c ren 313 -> 87
c ren 314 -> 88
c ren 315 -> 89
c ren 316 -> 90
c ren 317 -> 91
c ren 318 -> 92
c ren 319 -> 93
c ren 320 -> 94
c ren 321 -> 95
c ren 322 -> 96
c ren 323 -> 97
c ren 324 -> 98
c ren 325 -> 99
c ren 326 -> 100
c ren 327 -> 101
c ren 328 -> 102
c ren 329 -> 103
c ren 330 -> 104
c ren 331 -> 105
c ren 332 -> 106
p cnf 106 334
a 1 2 3 4 5 6 7 8 9 10 11 12 13 14 15 16 17 18 19 20 21 22 23 24 25 26 27 28 29 30 31 32 33 34 35 36 37 38 39 40 41 42 43 44 45 46 47 48 49 50 51 52 53 54 0
d 73 35 36 0
d 74 43 44 0
d 75 39 40 0
d 76 45 46 0
d 77 47 48 49 50 51 52 53 54 0
d 78 47 48 49 50 51 52 53 54 0
d 79 37 38 0
d 80 41 42 0
d 81 33 34 0
e 55 56 57 58 59 60 61 62 63 64 65 66 67 68 69 70 71 72 82 83 84 85 86 87 88 89 90 91 92 93 94 95 96 97 98 99 100 101 102 103 104 105 106 0
-9 -10 -11 -12 28 -55 -69 0
9 10 11 -27 69 0
-11 27 -55 0
-9 -11 -12 26 28 -55 -69 0
10 -25 -28 -55 69 0
9 -26 -28 -55 69 0
9 10 -26 56 0
10 11 -25 -27 69 0
10 12 -25 -28 -55 56 0
9 -25 56 0
-9 10 -11 12 26 28 -55 -56 0
9 11 -26 -27 69 0
9 10 12 -28 -55 56 0
11 55 0
-27 55 0
10 -11 -12 25 26 -28 -55 -56 0
-10 25 26 -69 0
-9 25 -69 0
-9 -10 -12 27 28 -55 -69 0
-9 10 -11 -12 26 -28 -55 -56 0
-10 -11 12 25 -26 28 -55 -56 0
10 11 -25 -27 56 0
-10 -11 -12 25 -26 -28 -55 -56 0
-9 -10 26 -69 0
10 -11 12 25 26 28 -56 0
-9 -10 -11 12 -26 28 -55 -56 0
10 -25 -26 56 0
10 -28 -56 69 0
10 12 -25 -55 69 0
-10 -11 -12 25 28 -55 -69 0
10 55 -56 69 0
9 10 12 -55 69 0
-12 25 26 27 28 -55 -69 0
-9 25 -56 0
9 -25 69 0
9 11 -26 -27 56 0
10 -25 -26 69 0
10 -25 55 56 -69 0
-56 -72 0
-7 -57 0
23 -57 0
7 -23 57 0
-57 61 -70 -71 0
-8 56 57 58 59 61 64 67 -68 -69 -70 72 0
-6 -58 0
22 -58 0
6 -22 58 0
-58 -72 0
-8 56 57 58 59 64 -67 71 0
-5 -59 0
21 -59 0
6 78 -82 -84 -85 0
-59 -70 -71 0
5 -58 -61 0
6 -24 -60 -75 84 0
-8 24 -72 0
7 60 0
-23 60 0
6 -21 -57 -61 0
5 6 -24 -60 -61 0
-5 21 61 0
-5 21 -75 84 0
-58 61 -70 -71 0
-57 -72 0
60 61 -70 -71 0
-6 -21 22 59 -84 0
-5 21 -82 0
-59 -82 0
-6 22 61 -70 -71 0
-15 24 29 31 56 57 58 59 64 65 71 0
8 -24 -82 0
-8 24 -82 0
-8 -21 24 59 74 80 -84 0
-6 22 59 61 0
-13 -15 24 31 56 57 58 59 64 65 71 0
5 59 60 80 -84 0
8 -24 61 -70 -71 0
-8 -13 56 57 58 59 64 66 71 0
-21 59 60 80 -84 0
8 -24 -72 0
6 -8 24 57 58 59 61 0
-64 -72 0
66 -68 0
2 4 -19 -63 70 0
-19 -51 -105 0
-2 3 4 -18 19 20 62 -64 0
2 3 -19 -63 70 0
2 3 4 -20 -63 64 0
-2 3 -4 -18 19 -20 62 -64 0
-18 -52 -106 0
2 -3 -4 18 -19 -20 62 -64 0
-3 -18 19 -64 70 0
-1 -62 0
17 -62 0
-1 17 -63 0
-2 -3 4 -18 -19 20 62 -64 0
-13 24 56 57 58 59 64 66 71 0
13 15 16 29 31 32 65 -66 68 0
-21 -22 -57 -61 0
2 3 -20 -63 70 0
2 -3 4 18 -19 20 62 -64 0
-2 18 62 -70 0
1 63 0
-17 63 0
-2 18 52 -106 0
2 3 4 -63 70 0
-62 -63 70 0
3 -51 -105 0
-3 19 51 -105 0
4 -20 64 -70 0
-2 -3 -4 -18 -19 -20 62 -64 0
2 -3 19 -64 70 0
-49 63 -103 0
2 4 -19 -20 -63 64 0
3 -18 -19 -63 70 0
3 -18 -20 -63 70 0
3 4 -18 -20 -63 64 0
-20 -50 -104 0
-49 -62 -103 0
4 -50 -104 0
3 4 -18 -63 70 0
2 -18 -63 70 0
63 -70 0
5 -22 -57 -61 0
-18 -19 -20 -63 70 0
-9 10 -12 26 27 -28 -56 0
-3 18 19 62 -70 0
2 3 -4 18 19 -20 62 -64 0
-3 19 64 -70 0
-64 -70 -71 0
5 6 8 -60 -61 0
-13 15 -16 -29 31 -32 65 -66 68 0
15 -31 -67 0
-13 -15 -16 -29 -31 32 65 -66 67 0
13 -15 -16 29 -31 32 65 -66 67 0
-13 15 16 -29 31 32 65 -66 68 0
-14 -65 0
30 -65 0
-14 30 -66 0
-65 -67 0
13 -15 16 29 -31 32 65 -66 68 0
13 -29 -67 0
4 -18 -19 -63 70 0
13 -29 -76 -83 0
-13 -15 -16 -29 -31 -32 65 -66 68 0
-31 -66 67 -76 -83 0
13 15 61 -66 67 -69 -70 -71 0
14 66 0
-30 66 0
13 29 66 83 0
-13 29 -76 -83 0
-8 -13 29 56 57 58 59 64 71 0
-29 61 -65 -69 -70 -71 0
-13 -29 66 83 0
-8 -15 29 31 56 57 58 59 64 65 71 0
5 -6 22 59 -84 0
-61 64 71 0
-32 -67 0
13 15 -16 29 31 -32 65 -66 68 0
-10 -12 25 -26 27 -28 -56 0
13 -31 61 -66 67 -69 -70 -71 0
12 -26 -56 69 0
15 -66 67 -76 -83 0
-65 -68 0
6 8 -21 -60 -61 0
13 -15 29 31 65 83 0
-65 -76 -83 0
13 -29 61 -69 -70 -71 0
-13 29 -67 0
15 -29 61 -66 67 -69 -70 -71 0
10 12 -56 69 0
9 10 -26 69 0
60 -72 0
63 -64 0
-8 -13 -15 31 56 57 58 59 64 65 71 0
-13 24 29 56 57 58 59 64 71 0
-59 -75 84 0
-56 61 -69 -70 -71 0
69 -72 0
66 -67 0
70 71 0
-61 -72 0
-67 -72 0
-56 -69 -77 -84 -85 0
70 -72 0
13 15 -16 29 31 32 65 -66 67 0
56 -68 -69 72 77 78 82 83 -84 -86 0
-10 -12 25 27 28 -55 -69 0
9 10 11 -27 56 0
9 10 55 56 -69 0
10 -12 25 26 27 -28 -55 -56 0
-10 12 25 -26 27 28 -56 0
-9 -10 -11 -12 -26 -28 -55 -56 0
9 10 -28 -55 69 0
-9 10 26 55 -56 0
10 25 26 55 -56 0
69 77 82 85 0
5 -21 59 0
58 59 60 61 0
-8 -21 -24 59 74 80 82 0
-7 23 -60 0
-22 -60 -77 -82 -84 -85 0
6 -60 -74 -75 84 0
5 -8 24 59 74 80 -84 0
-59 -61 0
5 -8 -24 59 74 80 82 0
-22 -75 -80 84 0
6 -21 -24 -60 -61 0
5 8 24 59 74 80 82 0
-8 57 58 59 64 69 71 0
6 8 -60 -75 84 0
-72 -75 -82 -86 0
24 57 58 59 64 69 71 0
-21 -58 -61 0
-8 24 61 -70 -71 0
-74 -82 0
-80 -82 0
-59 -72 0
-8 29 56 57 58 59 64 66 71 0
6 -75 -80 84 0
56 -78 82 -83 85 0
6 -60 -77 -82 -84 -85 0
5 6 -57 -61 0
69 -78 82 85 0
-77 78 -85 0
-13 -15 16 -29 -31 32 65 -66 68 0
13 61 -65 -66 -69 -70 -71 0
14 -30 65 0
10 12 25 26 27 28 -56 0
-9 -10 -12 -26 27 -28 -55 -56 0
-13 -15 -29 31 65 83 0
13 -15 -16 29 -31 -32 65 -66 68 0
-2 -3 19 62 -70 0
76 83 0
-13 15 -16 -29 31 32 65 -66 67 0
-67 83 0
2 -18 -63 64 0
16 -67 0
-29 -31 61 -66 67 -69 -70 -71 0
-72 -83 -86 0
-69 78 83 -84 -85 0
8 -21 24 59 74 80 82 0
77 -78 85 0
-78 84 85 0
-56 -69 78 -84 -85 0
-72 77 -78 -86 0
75 -84 0
1 -17 62 0
-9 -10 12 -26 27 28 -55 -56 0
-69 -77 83 -84 -85 0
77 84 85 0
-72 -77 78 -86 0
71 -85 -86 0
-71 85 -86 0
56 77 82 -83 85 0
-72 84 -86 0
56 -68 -69 72 -77 -78 82 83 -84 -86 0
-2 -33 -87 0
5 -22 -24 -60 -61 0
2 33 -87 0
-18 -34 -88 0
-25 -26 55 56 -69 0
8 -21 -22 -60 -61 0
18 34 -88 0
-3 -35 -89 0
-9 10 12 26 27 28 -55 -56 0
3 35 -89 0
-19 -36 -90 0
12 -25 -26 -28 -55 56 0
-10 25 -26 55 -56 0
19 36 -90 0
-4 -37 -91 0
24 56 57 58 59 64 -67 71 0
4 37 -91 0
-20 -38 -92 0
-8 -22 24 57 58 59 61 0
-21 -22 -24 -60 -61 0
20 38 -92 0
-5 -39 -93 0
24 29 56 57 58 59 64 66 71 0
5 39 -93 0
-21 -40 -94 0
-22 -24 -60 -75 84 0
-26 55 -56 69 0
21 40 -94 0
-6 -41 -95 0
9 12 -26 -28 -55 56 0
4 -18 -19 -20 -63 64 0
6 41 -95 0
-22 -42 -96 0
9 12 -26 -55 69 0
11 -25 -26 -27 69 0
22 42 -96 0
-7 -43 -97 0
8 -22 -60 -75 84 0
-22 78 -82 -84 -85 0
7 43 -97 0
-23 -44 -98 0
11 -25 -26 -27 56 0
23 44 -98 0
-13 -45 -99 0
-26 -28 -56 69 0
13 45 -99 0
-29 -46 -100 0
-22 -60 -74 -75 84 0
12 -25 -26 -55 69 0
29 46 -100 0
-47 -73 -101 0
-25 -26 -28 -55 69 0
5 8 -22 -60 -61 0
47 73 -101 0
-48 -81 -102 0
-11 -12 25 26 28 -55 -69 0
-9 -10 -26 55 -56 0
48 81 -102 0
-9 -12 26 27 28 -55 -69 0
-62 -63 64 0
49 62 -63 -103 0
-3 -4 18 -19 20 62 -70 0
-2 3 -4 19 20 62 -70 0
3 -18 -19 -63 64 0
-4 20 50 -104 0
2 3 -19 -63 64 0
2 -19 -20 -63 70 0
3 -4 18 19 20 62 -70 0
-2 -3 -4 -19 20 62 -70 0
2 3 4 18 19 20 62 -64 0
9 -26 55 56 -69 0
24 56 57 58 59 61 64 67 -68 -69 -70 72 0
2 -52 -106 0
-53 54 -63 79 86 87 88 89 90 91 92 93 94 95 96 97 98 99 100 101 102 103 104 105 106 0
53 -54 63 -79 86 87 88 89 90 91 92 93 94 95 96 97 98 99 100 101 102 103 104 105 106 0
-53 -54 -63 -79 86 87 88 89 90 91 92 93 94 95 96 97 98 99 100 101 102 103 104 105 106 0
53 54 63 79 86 87 88 89 90 91 92 93 94 95 96 97 98 99 100 101 102 103 104 105 106 0
